RAW/XT/fspd-long/X-n101-k25.vrp_seed-4.out
25090	43.443	371.459
