RAW/XT/fspd-long/X-n101-k25.vrp_seed-4.sol
Route #1: 63 82 59
Route #2: 44 77 67
Route #3: 8 17 80
Route #4: 97 91 51
Route #5: 71 62 99 98 89
Route #6: 5 12 58
Route #7: 35 20 41 22 15
Route #8: 18 4 25
Route #9: 34 64 3 94 56
Route #10: 9 16 69
Route #11: 13 74 55 76 90
Route #12: 52 83 81 50
Route #13: 61 27 100 21
Route #14: 32 31 24 46
Route #15: 23 19 11 85 30
Route #16: 66 84 86 70 1
Route #17: 75 53 73 95
Route #18: 38 47 26 48 96
Route #19: 92 54 68
Route #20: 33 93 79
Route #21: 7 2 45 43 29 36 87 60 88 40
Route #22: 57 72 37 6 49
Route #23: 14 28 42 78 65 10 39
Cost 25090.000000